problems/csplib-prob001/CarSequencing-models/compact/O2/lingeling/model-random14-solution000001.eprime-solution
language ESSENCE' 1.0

letting car_Function1D be
        [17, 14, 6, 5, 2, 14, 2, 6, 5, 2, 16, 4, 15, 6, 2, 14, 6, 15, 5, 6, 2, 5, 2, 6, 14, 2, 5, 2, 6, 16, 15, 5, 6, 2,
         6, 2, 6, 5, 2, 6, 2, 5, 6, 2, 1, 2, 14, 6, 2, 6, 2, 14, 5, 9, 3, 6, 1, 2, 6, 2, 1, 6, 15, 5, 2, 8, 1, 2, 9, 15,
         5, 14, 2, 5, 16, 14, 2, 5, 9, 2, 1, 2, 14, 5, 2, 16, 14, 10, 9, 2, 16, 6, 2, 11, 2, 16, 6, 2, 5, 9, 15, 6, 15,
         5, 14, 2, 12, 2, 6, 5, 6, 2, 5, 14, 2, 5, 6, 2, 14, 19, 5, 9, 2, 1, 9, 2, 5, 2, 6, 1, 2, 6, 5, 2, 6, 14, 2, 4,
         2, 14, 11, 14, 6, 2, 5, 6, 2, 14, 6, 17, 14, 7, 5, 2, 14, 6, 2, 5, 7, 15, 6, 5, 14, 18, 5, 14, 3, 5, 2, 6, 5,
         6, 2, 2, 14, 14, 11, 2, 7, 2, 5, 6, 2, 5, 2, 16, 6, 2, 5, 6, 2, 11, 14, 6, 13, 6, 2, 6, 5, 2; int(1..200)]
